max:+ d0 + d1 + d2 ;

 /* server 0*/
f0s0u0 <= x0s0 + 1666666.6666666667 u0;
f1s0u0 <= x1s0 + 1666666.6666666667 u0;
f2s0u0 <= x2s0 + 1666666.6666666667 u0;
+ f1s0u0+ f2s0u0<= 0 + 10000000 u0;
0+ f0s0u0+ f1s0u0+ f2s0u0= a0u0;
b0t0 >= 5000000.0 t0 - 50.00000000000001;
b0t0 >= 0;
b0t0 = a0u0;
d0 = t0 - u0;
d0 >= 0;

 /* server 1*/
f0s1u1 <= x0s1 + 1666666.6666666667 u1;
f1s1u1 <= x1s1 + 1666666.6666666667 u1;
f2s1u1 <= x2s1 + 1666666.6666666667 u1;
+ f0s1u1+ f2s1u1<= 0 + 5000000.0 u1;
0+ f0s1u1+ f1s1u1+ f2s1u1= a1u1;
b1t1 >= 10000000 t1 - 100.00000000000001;
b1t1 >= 0;
b1t1 = a1u1;
d1 = t1 - u1;
d1 >= 0;

 /* server 2*/
f0s2u2 <= x0s2 + 1666666.6666666667 u2;
f1s2u2 <= x1s2 + 1666666.6666666667 u2;
f2s2u2 <= x2s2 + 1666666.6666666667 u2;
+ f0s2u2+ f1s2u2<= 0 + 10000000 u2;
0+ f0s2u2+ f1s2u2+ f2s2u2= a2u2;
b2t2 >= 10000000 t2 - 100.00000000000001;
b2t2 >= 0;
b2t2 = a2u2;
d2 = t2 - u2;
d2 >= 0;

 /* sigma variables*/
x0s0 = 8;
x0s1 <= x0s0 + 1666666.6666666667 d0;
x0s2 <= x0s1 + 1666666.6666666667 d1;
x1s1 = 8;
x1s2 <= x1s1 + 1666666.6666666667 d1;
x1s0 <= x1s2 + 1666666.6666666667 d2;
x2s2 = 8;
x2s0 <= x2s2 + 1666666.6666666667 d2;
x2s1 <= x2s0 + 1666666.6666666667 d0;
